/*********************************************
 * OPL 12.9.0.0 Data
 * Author: jfb2444
 * Creation Date: Aug 22, 2020 at 11:56:47 AM
 *********************************************/

 n = 8;							
 visNorth	= [-1,1,2,5,-1,3,7,3]; 	
 visSouth 	= [3,2,-1,2,2,3,-1,-1]; 	
 visWest	= [-1,3,-1,4,-1,4,2,-1]; 	
 visEast	= [4,-1,3,-1,5,-1,2,2]; 	
 cellClue 	= [	[-1,-1,-1,-1,-1,-1,-1,-1],
 				[-1,-1,-1,-1,-1,-1,-1,4],
 				[-1,-1,-1,-1,-1,-1,-1,-1],
 				[-1,-1,-1,-1,5,-1,-1,-1],
 				[-1,-1,-1,-1,-1,-1,-1,-1],
 				[3,-1,-1,-1,-1,-1,-1,-1],
 				[-1,-1,3,-1,-1,1,-1,-1],
 				[-1,-1,-1,-1,-1,-1,-1,-1] ]; 	